NAME: ACTUAL_TOURS/amz2954
TYPE: TOUR
COMMENT: RouteID_dc8e9f49-8dae-4044-8c25-8c847fc91845
DIMENSION: 171
TOUR_SECTION
144
112
31
1
162
139
142
4
75
123
63
86
87
70
72
160
97
45
17
71
83
168
114
41
11
155
115
61
164
89
84
73
55
50
91
8
119
94
18
21
99
103
156
165
39
32
42
65
10
54
101
132
158
118
135
62
9
58
153
169
104
48
35
129
23
69
127
95
98
108
116
80
2
146
33
14
5
109
30
124
147
7
15
67
161
163
170
122
134
29
96
78
43
46
59
6
130
106
121
93
138
151
57
26
36
79
37
47
167
68
100
113
85
64
171
92
133
81
25
56
145
126
74
49
19
16
88
137
102
136
120
110
27
38
140
40
107
52
150
22
20
90
111
159
53
148
66
28
82
152
141
128
117
154
34
12
166
3
105
125
143
44
157
51
149
60
76
131
13
24
77
-1
EOF
